language ESSENCE' 1.0

letting jobs = 102
letting horizon = 781
letting resourcesRenew = 2
letting resourcesNonrenew = 2
letting resourceLimits = [80, 84, 196, 136]
letting successors = [[2, 3, 4, 5, 6, 7, 8, 9, 10, 11, 12, 13, 14, 15, 16, 17, 19, 20, 21, 25, 26, 27, 28, 31, 32, 34, 36, 39, 43], [100, 99, 98, 96, 75, 74, 73, 68, 65, 63, 61, 59, 55, 49, 40, 37, 30, 24], [101, 100, 99, 92, 73, 66, 65, 63, 59, 58, 52, 46, 40, 38, 33, 18], [101, 97, 94, 65, 62, 55, 49, 47, 46, 44, 33, 29, 22], [101, 100, 99, 97, 96, 92, 73, 67, 64, 63, 59, 57, 56, 52, 46, 40, 35, 29], [99, 98, 97, 74, 73, 72, 67, 64, 63, 59, 56, 52, 50, 49, 44, 42, 40, 38], [99, 98, 97, 95, 93, 75, 68, 62, 59, 57, 51, 50, 48, 44, 23], [99, 98, 95, 93, 92, 90, 73, 66, 65, 64, 63, 60, 57, 52, 48, 47, 38, 35], [100, 99, 98, 97, 96, 91, 75, 73, 60, 59, 54, 46, 40, 33], [101, 100, 98, 97, 94, 92, 91, 86, 70, 65, 61, 59, 54, 52, 48, 40, 38], [97, 96, 75, 65, 60, 55, 49, 33, 29], [100, 97, 94, 91, 90, 82, 75, 71, 70, 68, 66, 62, 61, 60, 57, 56, 55, 51], [97, 95, 94, 93, 90, 89, 83, 74, 73, 72, 70, 62, 60, 59, 54, 52, 38], [97, 95, 94, 92, 88, 84, 75, 72, 68, 67, 66, 64, 59, 53, 50, 41], [100, 99, 98, 95, 90, 87, 86, 79, 74, 72, 70, 68, 66, 65, 55, 49, 48], [98, 90, 86, 68, 67, 66, 64, 63, 55, 52, 48, 35], [100, 95, 94, 93, 92, 72, 64, 44, 29], [97, 94, 91, 60, 57, 56, 29], [99, 97, 93, 92, 91, 86, 82, 79, 71, 62, 37], [100, 97, 94, 91, 89, 86, 81, 70, 61, 59, 58, 57, 55], [96, 90, 87, 74, 73, 69, 63, 62, 60, 51, 48], [98, 95, 92, 89, 88, 85, 83, 73, 59, 52, 38], [101, 96, 92, 90, 88, 84, 81, 73, 72, 70, 61, 45], [95, 93, 84, 82, 70, 67, 66, 64, 60, 52, 50], [99, 96, 90, 86, 84, 80, 67, 66, 64, 63, 48], [96, 93, 92, 91, 86, 84, 82, 66, 65, 64, 60, 52], [95, 92, 91, 89, 86, 85, 84, 83, 82, 80, 71, 70, 68, 61], [93, 92, 87, 86, 85, 84, 82, 77, 72, 71, 69, 65, 63], [98, 90, 89, 87, 86, 80, 70, 68, 54, 48], [97, 95, 93, 90, 85, 84, 83, 82, 80, 79, 71, 70, 69, 67], [97, 96, 90, 89, 86, 84, 80, 79, 77, 68, 48], [97, 91, 89, 88, 86, 84, 82, 68, 65, 64, 60], [87, 86, 68, 64, 57, 48], [98, 96, 95, 88, 87, 86, 81, 80, 77, 69, 63, 55], [94, 91, 89, 87, 84, 83, 80, 79, 74, 71, 70, 69], [99, 90, 89, 86, 85, 82, 80, 78, 68, 67, 64], [94, 90, 85, 84, 70, 57, 52], [96, 84, 82, 80, 79, 78, 77, 71, 68], [87, 86, 85, 84, 83, 82, 81, 80, 79, 77, 76], [95, 90, 89, 82, 81, 79, 78, 77, 69], [90, 85, 82, 81, 77, 76, 70, 65], [94, 93, 88, 87, 85, 81, 77, 69], [100, 86, 82, 81, 80, 78, 68], [91, 88, 81, 80, 76, 61], [94, 91, 83, 82, 80, 79, 69], [88, 85, 83, 82, 80, 79, 77], [85, 83, 81, 80, 79, 78, 77], [88, 85, 82, 78, 76, 71], [93, 89, 83, 82, 80, 78], [89, 87, 86, 79, 77, 76], [88, 83, 77, 76, 72], [87, 80, 77, 69], [82, 79, 78, 69], [84, 81, 77, 76], [92, 84, 78, 76], [93, 86, 79, 76], [88, 83, 72], [78, 77, 69], [82, 79, 76], [85, 81, 79], [87, 79, 77], [88, 84, 77], [79, 70], [79, 77], [83, 78], [83, 78], [91, 77], [69], [76], [78], [81], [80], [86], [77], [89], [102], [102], [102], [102], [102], [102], [102], [102], [102], [102], [102], [102], [102], [102], [102], [102], [102], [102], [102], [102], [102], [102], [102], [102], [102], [102], []]
letting durations = [[0], [3, 6, 10], [6, 7, 9], [1, 2, 6], [5, 6, 9], [4, 9, 10], [2, 7, 10], [5, 6, 6], [2, 7, 9], [1, 4, 7], [2, 6, 9], [2, 3, 8], [1, 3, 9], [6, 6, 9], [1, 6, 7], [8, 9, 10], [3, 6, 7], [1, 4, 10], [3, 8, 9], [4, 5, 10], [8, 9, 10], [3, 4, 5], [2, 7, 7], [6, 7, 8], [1, 1, 4], [2, 2, 3], [1, 4, 7], [1, 7, 9], [2, 7, 9], [1, 7, 8], [3, 4, 7], [2, 4, 8], [5, 6, 8], [1, 1, 10], [2, 2, 10], [5, 6, 7], [2, 5, 8], [4, 5, 7], [3, 5, 5], [4, 5, 6], [4, 6, 7], [3, 5, 7], [1, 2, 8], [3, 7, 8], [2, 3, 8], [3, 8, 9], [2, 3, 3], [5, 8, 9], [3, 4, 9], [6, 8, 9], [6, 9, 9], [2, 7, 9], [3, 7, 9], [4, 6, 10], [1, 2, 6], [2, 4, 9], [3, 5, 7], [2, 6, 8], [1, 2, 4], [2, 5, 5], [4, 6, 8], [1, 5, 6], [2, 6, 8], [4, 4, 8], [1, 3, 8], [1, 2, 5], [2, 8, 9], [3, 7, 7], [5, 6, 10], [1, 3, 7], [4, 7, 9], [1, 3, 9], [1, 4, 8], [4, 4, 8], [5, 5, 6], [3, 5, 7], [1, 8, 8], [2, 3, 3], [1, 4, 10], [2, 3, 6], [3, 4, 7], [1, 6, 9], [1, 1, 7], [5, 6, 9], [3, 4, 6], [1, 4, 8], [2, 3, 10], [1, 4, 8], [2, 9, 10], [2, 3, 6], [6, 6, 7], [1, 5, 5], [2, 9, 10], [1, 10, 10], [1, 3, 4], [2, 3, 9], [1, 8, 9], [3, 5, 5], [1, 9, 10], [6, 7, 9], [7, 9, 10], [0]]
letting resourceUsage = [[[0, 0, 0, 0]], [[0, 7, 0, 7], [7, 0, 0, 6], [6, 0, 0, 4]], [[0, 4, 10, 0], [0, 3, 7, 0], [0, 2, 6, 0]], [[0, 4, 0, 4], [0, 3, 0, 3], [5, 0, 7, 0]], [[0, 6, 0, 5], [0, 5, 7, 0], [0, 5, 0, 2]], [[3, 0, 0, 6], [0, 5, 0, 4], [0, 5, 2, 0]], [[0, 3, 8, 0], [0, 3, 7, 0], [0, 2, 0, 1]], [[5, 0, 0, 6], [3, 0, 6, 0], [0, 4, 4, 0]], [[4, 0, 9, 0], [0, 7, 0, 6], [0, 7, 5, 0]], [[8, 0, 3, 0], [0, 8, 3, 0], [1, 0, 1, 0]], [[0, 9, 0, 3], [0, 7, 0, 2], [0, 1, 4, 0]], [[0, 1, 10, 0], [0, 1, 0, 3], [0, 1, 0, 2]], [[10, 0, 0, 7], [9, 0, 2, 0], [9, 0, 1, 0]], [[0, 7, 10, 0], [0, 7, 0, 2], [0, 7, 9, 0]], [[0, 6, 5, 0], [9, 0, 0, 5], [8, 0, 0, 4]], [[9, 0, 0, 2], [8, 0, 0, 2], [0, 6, 3, 0]], [[9, 0, 10, 0], [7, 0, 5, 0], [0, 5, 3, 0]], [[0, 9, 10, 0], [3, 0, 8, 0], [1, 0, 0, 2]], [[0, 7, 8, 0], [6, 0, 0, 6], [0, 3, 0, 2]], [[10, 0, 0, 7], [0, 5, 0, 6], [0, 3, 3, 0]], [[0, 7, 0, 7], [8, 0, 2, 0], [7, 0, 0, 5]], [[0, 8, 0, 6], [0, 7, 0, 5], [0, 4, 0, 3]], [[0, 5, 6, 0], [2, 0, 4, 0], [0, 4, 0, 1]], [[4, 0, 0, 5], [3, 0, 0, 3], [2, 0, 0, 1]], [[0, 6, 0, 6], [0, 6, 6, 0], [7, 0, 0, 5]], [[1, 0, 2, 0], [0, 9, 0, 3], [1, 0, 1, 0]], [[7, 0, 7, 0], [7, 0, 6, 0], [2, 0, 3, 0]], [[0, 4, 9, 0], [8, 0, 0, 3], [8, 0, 7, 0]], [[0, 7, 7, 0], [7, 0, 7, 0], [7, 0, 6, 0]], [[5, 0, 7, 0], [3, 0, 6, 0], [2, 0, 4, 0]], [[0, 4, 0, 8], [5, 0, 0, 6], [0, 3, 2, 0]], [[3, 0, 0, 3], [2, 0, 9, 0], [0, 3, 9, 0]], [[0, 5, 10, 0], [5, 0, 0, 2], [5, 0, 0, 1]], [[8, 0, 8, 0], [0, 6, 0, 3], [0, 5, 0, 2]], [[6, 0, 5, 0], [0, 5, 4, 0], [0, 5, 3, 0]], [[0, 7, 6, 0], [6, 0, 5, 0], [0, 6, 4, 0]], [[6, 0, 0, 9], [0, 3, 6, 0], [6, 0, 0, 6]], [[10, 0, 0, 5], [6, 0, 0, 4], [0, 5, 0, 2]], [[6, 0, 7, 0], [0, 5, 7, 0], [6, 0, 6, 0]], [[0, 3, 0, 9], [0, 3, 3, 0], [7, 0, 0, 6]], [[0, 5, 8, 0], [0, 5, 7, 0], [1, 0, 5, 0]], [[0, 10, 8, 0], [3, 0, 5, 0], [2, 0, 5, 0]], [[7, 0, 7, 0], [0, 7, 0, 1], [0, 6, 0, 1]], [[5, 0, 0, 8], [0, 6, 0, 5], [0, 3, 0, 4]], [[6, 0, 10, 0], [0, 3, 0, 4], [0, 2, 8, 0]], [[8, 0, 0, 8], [0, 8, 0, 5], [8, 0, 0, 4]], [[7, 0, 6, 0], [0, 7, 5, 0], [7, 0, 0, 8]], [[3, 0, 7, 0], [0, 6, 4, 0], [2, 0, 2, 0]], [[8, 0, 0, 8], [6, 0, 0, 4], [4, 0, 8, 0]], [[0, 6, 0, 7], [6, 0, 4, 0], [5, 0, 4, 0]], [[0, 5, 0, 7], [2, 0, 0, 6], [0, 2, 0, 6]], [[10, 0, 0, 7], [0, 5, 8, 0], [3, 0, 7, 0]], [[0, 5, 0, 2], [6, 0, 7, 0], [0, 4, 3, 0]], [[10, 0, 0, 9], [0, 7, 7, 0], [7, 0, 0, 3]], [[8, 0, 0, 9], [0, 9, 0, 6], [3, 0, 0, 3]], [[0, 10, 8, 0], [0, 9, 4, 0], [0, 8, 4, 0]], [[0, 3, 0, 9], [4, 0, 4, 0], [2, 0, 4, 0]], [[0, 4, 0, 3], [0, 4, 8, 0], [3, 0, 0, 1]], [[7, 0, 5, 0], [0, 7, 0, 1], [2, 0, 1, 0]], [[9, 0, 7, 0], [0, 6, 0, 8], [8, 0, 3, 0]], [[8, 0, 0, 6], [0, 3, 9, 0], [4, 0, 0, 1]], [[0, 7, 0, 9], [9, 0, 0, 7], [9, 0, 0, 6]], [[9, 0, 0, 6], [0, 7, 9, 0], [8, 0, 0, 4]], [[0, 7, 0, 2], [0, 6, 3, 0], [1, 0, 0, 1]], [[0, 4, 5, 0], [0, 4, 4, 0], [4, 0, 5, 0]], [[0, 6, 7, 0], [0, 4, 5, 0], [4, 0, 3, 0]], [[0, 9, 0, 8], [0, 9, 5, 0], [9, 0, 5, 0]], [[4, 0, 0, 10], [0, 9, 4, 0], [0, 8, 0, 4]], [[0, 9, 9, 0], [9, 0, 5, 0], [9, 0, 4, 0]], [[7, 0, 5, 0], [4, 0, 3, 0], [1, 0, 1, 0]], [[0, 9, 7, 0], [3, 0, 0, 3], [3, 0, 5, 0]], [[0, 9, 4, 0], [0, 8, 0, 8], [0, 7, 0, 6]], [[0, 7, 8, 0], [0, 7, 7, 0], [5, 0, 6, 0]], [[6, 0, 0, 6], [0, 7, 8, 0], [3, 0, 8, 0]], [[0, 5, 6, 0], [0, 4, 0, 4], [0, 1, 0, 3]], [[9, 0, 0, 3], [7, 0, 3, 0], [7, 0, 0, 1]], [[0, 6, 10, 0], [3, 0, 0, 8], [0, 6, 3, 0]], [[0, 7, 0, 8], [5, 0, 1, 0], [0, 6, 0, 7]], [[8, 0, 0, 3], [0, 3, 0, 2], [6, 0, 4, 0]], [[9, 0, 0, 10], [0, 4, 8, 0], [0, 3, 4, 0]], [[8, 0, 7, 0], [0, 9, 3, 0], [7, 0, 1, 0]], [[0, 8, 10, 0], [6, 0, 9, 0], [0, 8, 8, 0]], [[0, 9, 7, 0], [4, 0, 0, 5], [0, 6, 0, 4]], [[10, 0, 6, 0], [0, 2, 3, 0], [0, 2, 0, 7]], [[7, 0, 0, 9], [0, 2, 0, 5], [5, 0, 0, 2]], [[9, 0, 0, 5], [0, 3, 7, 0], [6, 0, 0, 1]], [[0, 7, 0, 9], [5, 0, 0, 6], [5, 0, 7, 0]], [[4, 0, 2, 0], [3, 0, 0, 6], [0, 2, 1, 0]], [[9, 0, 0, 6], [0, 1, 1, 0], [2, 0, 0, 6]], [[7, 0, 0, 7], [4, 0, 7, 0], [3, 0, 0, 2]], [[4, 0, 4, 0], [2, 0, 0, 8], [0, 3, 0, 7]], [[9, 0, 10, 0], [0, 6, 0, 7], [7, 0, 0, 4]], [[0, 7, 3, 0], [0, 6, 0, 7], [7, 0, 1, 0]], [[0, 5, 7, 0], [3, 0, 0, 5], [3, 0, 5, 0]], [[9, 0, 2, 0], [8, 0, 0, 6], [0, 2, 0, 5]], [[5, 0, 8, 0], [0, 1, 0, 1], [2, 0, 0, 1]], [[7, 0, 3, 0], [0, 7, 2, 0], [6, 0, 0, 9]], [[0, 9, 2, 0], [2, 0, 2, 0], [2, 0, 0, 2]], [[10, 0, 8, 0], [0, 5, 0, 3], [0, 5, 8, 0]], [[0, 8, 0, 4], [7, 0, 2, 0], [4, 0, 2, 0]], [[10, 0, 0, 8], [0, 2, 7, 0], [0, 2, 4, 0]], [[0, 0, 0, 0]]]
